(set-logic QF_LRA)
(declare-fun T1 () Real )
(declare-fun T2 () Real )
(declare-fun T3 () Real )
(declare-fun T4 () Real )
(declare-fun T5 () Real )
(declare-fun T6 () Real )
(declare-fun T7 () Real )
(declare-fun T8 () Real )
(declare-fun T9 () Real )
(declare-fun T10 () Real )
(declare-fun Z () Real )
(declare-fun k () Real )
(assert (let
(( $goal (>= Z k) ))
(let
((
$phi ( and 
(or ( <= ( + T1 94 ) T2 ) ( <= ( + T2 71 ) T1 ) )
(or ( <= ( + T1 170 )  ( + T2 71 ) ) ( <= ( + T2 131 )( + T1 94 ) ) )
(or ( <= ( + T1 257 )  ( + T2 131 ) ) ( <= ( + T2 174 )( + T1 170 ) ) )
(or ( <= ( + T1 298 )  ( + T2 174 ) ) ( <= ( + T2 202 )( + T1 257 ) ) )
(or ( <= ( + T1 354 )  ( + T2 202 ) ) ( <= ( + T2 273 )( + T1 298 ) ) )
(or ( <= ( + T1 410 )  ( + T2 273 ) ) ( <= ( + T2 274 )( + T1 354 ) ) )
(or ( <= ( + T1 434 )  ( + T2 274 ) ) ( <= ( + T2 336 )( + T1 410 ) ) )
(or ( <= ( + T1 530 )  ( + T2 336 ) ) ( <= ( + T2 415 )( + T1 434 ) ) )
(or ( <= ( + T1 94 ) T3 ) ( <= ( + T3 22 ) T1 ) )
(or ( <= ( + T1 170 )  ( + T3 22 ) ) ( <= ( + T3 104 )( + T1 94 ) ) )
(or ( <= ( + T1 257 )  ( + T3 104 ) ) ( <= ( + T3 176 )( + T1 170 ) ) )
(or ( <= ( + T1 298 )  ( + T3 176 ) ) ( <= ( + T3 212 )( + T1 257 ) ) )
(or ( <= ( + T1 354 )  ( + T3 212 ) ) ( <= ( + T3 291 )( + T1 298 ) ) )
(or ( <= ( + T1 410 )  ( + T3 291 ) ) ( <= ( + T3 371 )( + T1 354 ) ) )
(or ( <= ( + T1 434 )  ( + T3 371 ) ) ( <= ( + T3 432 )( + T1 410 ) ) )
(or ( <= ( + T1 530 )  ( + T3 432 ) ) ( <= ( + T3 513 )( + T1 434 ) ) )
(or ( <= ( + T1 94 ) T4 ) ( <= ( + T4 62 ) T1 ) )
(or ( <= ( + T1 170 )  ( + T4 62 ) ) ( <= ( + T4 162 )( + T1 94 ) ) )
(or ( <= ( + T1 257 )  ( + T4 162 ) ) ( <= ( + T4 240 )( + T1 170 ) ) )
(or ( <= ( + T1 298 )  ( + T4 240 ) ) ( <= ( + T4 290 )( + T1 257 ) ) )
(or ( <= ( + T1 354 )  ( + T4 290 ) ) ( <= ( + T4 385 )( + T1 298 ) ) )
(or ( <= ( + T1 410 )  ( + T4 385 ) ) ( <= ( + T4 458 )( + T1 354 ) ) )
(or ( <= ( + T1 434 )  ( + T4 458 ) ) ( <= ( + T4 557 )( + T1 410 ) ) )
(or ( <= ( + T1 530 )  ( + T4 557 ) ) ( <= ( + T4 645 )( + T1 434 ) ) )
(or ( <= ( + T1 94 ) T5 ) ( <= ( + T5 48 ) T1 ) )
(or ( <= ( + T1 170 )  ( + T5 48 ) ) ( <= ( + T5 86 )( + T1 94 ) ) )
(or ( <= ( + T1 257 )  ( + T5 86 ) ) ( <= ( + T5 167 )( + T1 170 ) ) )
(or ( <= ( + T1 298 )  ( + T5 167 ) ) ( <= ( + T5 170 )( + T1 257 ) ) )
(or ( <= ( + T1 354 )  ( + T5 170 ) ) ( <= ( + T5 263 )( + T1 298 ) ) )
(or ( <= ( + T1 410 )  ( + T5 263 ) ) ( <= ( + T5 319 )( + T1 354 ) ) )
(or ( <= ( + T1 434 )  ( + T5 319 ) ) ( <= ( + T5 369 )( + T1 410 ) ) )
(or ( <= ( + T1 530 )  ( + T5 369 ) ) ( <= ( + T5 384 )( + T1 434 ) ) )
(or ( <= ( + T1 94 ) T6 ) ( <= ( + T6 15 ) T1 ) )
(or ( <= ( + T1 170 )  ( + T6 15 ) ) ( <= ( + T6 107 )( + T1 94 ) ) )
(or ( <= ( + T1 257 )  ( + T6 107 ) ) ( <= ( + T6 202 )( + T1 170 ) ) )
(or ( <= ( + T1 298 )  ( + T6 202 ) ) ( <= ( + T6 239 )( + T1 257 ) ) )
(or ( <= ( + T1 354 )  ( + T6 239 ) ) ( <= ( + T6 284 )( + T1 298 ) ) )
(or ( <= ( + T1 410 )  ( + T6 284 ) ) ( <= ( + T6 340 )( + T1 354 ) ) )
(or ( <= ( + T1 434 )  ( + T6 340 ) ) ( <= ( + T6 355 )( + T1 410 ) ) )
(or ( <= ( + T1 530 )  ( + T6 355 ) ) ( <= ( + T6 373 )( + T1 434 ) ) )
(or ( <= ( + T1 94 ) T7 ) ( <= ( + T7 37 ) T1 ) )
(or ( <= ( + T1 170 )  ( + T7 37 ) ) ( <= ( + T7 123 )( + T1 94 ) ) )
(or ( <= ( + T1 257 )  ( + T7 123 ) ) ( <= ( + T7 176 )( + T1 170 ) ) )
(or ( <= ( + T1 298 )  ( + T7 176 ) ) ( <= ( + T7 243 )( + T1 257 ) ) )
(or ( <= ( + T1 354 )  ( + T7 243 ) ) ( <= ( + T7 309 )( + T1 298 ) ) )
(or ( <= ( + T1 410 )  ( + T7 309 ) ) ( <= ( + T7 374 )( + T1 354 ) ) )
(or ( <= ( + T1 434 )  ( + T7 374 ) ) ( <= ( + T7 421 )( + T1 410 ) ) )
(or ( <= ( + T1 530 )  ( + T7 421 ) ) ( <= ( + T7 500 )( + T1 434 ) ) )
(or ( <= ( + T1 94 ) T8 ) ( <= ( + T8 64 ) T1 ) )
(or ( <= ( + T1 170 )  ( + T8 64 ) ) ( <= ( + T8 140 )( + T1 94 ) ) )
(or ( <= ( + T1 257 )  ( + T8 140 ) ) ( <= ( + T8 221 )( + T1 170 ) ) )
(or ( <= ( + T1 298 )  ( + T8 221 ) ) ( <= ( + T8 231 )( + T1 257 ) ) )
(or ( <= ( + T1 354 )  ( + T8 231 ) ) ( <= ( + T8 279 )( + T1 298 ) ) )
(or ( <= ( + T1 410 )  ( + T8 279 ) ) ( <= ( + T8 310 )( + T1 354 ) ) )
(or ( <= ( + T1 434 )  ( + T8 310 ) ) ( <= ( + T8 408 )( + T1 410 ) ) )
(or ( <= ( + T1 530 )  ( + T8 408 ) ) ( <= ( + T8 503 )( + T1 434 ) ) )
(or ( <= ( + T1 94 ) T9 ) ( <= ( + T9 68 ) T1 ) )
(or ( <= ( + T1 170 )  ( + T9 68 ) ) ( <= ( + T9 98 )( + T1 94 ) ) )
(or ( <= ( + T1 257 )  ( + T9 98 ) ) ( <= ( + T9 147 )( + T1 170 ) ) )
(or ( <= ( + T1 298 )  ( + T9 147 ) ) ( <= ( + T9 159 )( + T1 257 ) ) )
(or ( <= ( + T1 354 )  ( + T9 159 ) ) ( <= ( + T9 196 )( + T1 298 ) ) )
(or ( <= ( + T1 410 )  ( + T9 196 ) ) ( <= ( + T9 295 )( + T1 354 ) ) )
(or ( <= ( + T1 434 )  ( + T9 295 ) ) ( <= ( + T9 322 )( + T1 410 ) ) )
(or ( <= ( + T1 530 )  ( + T9 322 ) ) ( <= ( + T9 373 )( + T1 434 ) ) )
(or ( <= ( + T1 94 ) T10 ) ( <= ( + T10 42 ) T1 ) )
(or ( <= ( + T1 170 )  ( + T10 42 ) ) ( <= ( + T10 115 )( + T1 94 ) ) )
(or ( <= ( + T1 257 )  ( + T10 115 ) ) ( <= ( + T10 202 )( + T1 170 ) ) )
(or ( <= ( + T1 298 )  ( + T10 202 ) ) ( <= ( + T10 288 )( + T1 257 ) ) )
(or ( <= ( + T1 354 )  ( + T10 288 ) ) ( <= ( + T10 316 )( + T1 298 ) ) )
(or ( <= ( + T1 410 )  ( + T10 316 ) ) ( <= ( + T10 317 )( + T1 354 ) ) )
(or ( <= ( + T1 434 )  ( + T10 317 ) ) ( <= ( + T10 320 )( + T1 410 ) ) )
(or ( <= ( + T1 530 )  ( + T10 320 ) ) ( <= ( + T10 336 )( + T1 434 ) ) )
(or ( <= ( + T2 71 ) T3 ) ( <= ( + T3 22 ) T2 ) )
(or ( <= ( + T2 131 )  ( + T3 22 ) ) ( <= ( + T3 104 )( + T2 71 ) ) )
(or ( <= ( + T2 174 )  ( + T3 104 ) ) ( <= ( + T3 176 )( + T2 131 ) ) )
(or ( <= ( + T2 202 )  ( + T3 176 ) ) ( <= ( + T3 212 )( + T2 174 ) ) )
(or ( <= ( + T2 273 )  ( + T3 212 ) ) ( <= ( + T3 291 )( + T2 202 ) ) )
(or ( <= ( + T2 274 )  ( + T3 291 ) ) ( <= ( + T3 371 )( + T2 273 ) ) )
(or ( <= ( + T2 336 )  ( + T3 371 ) ) ( <= ( + T3 432 )( + T2 274 ) ) )
(or ( <= ( + T2 415 )  ( + T3 432 ) ) ( <= ( + T3 513 )( + T2 336 ) ) )
(or ( <= ( + T2 71 ) T4 ) ( <= ( + T4 62 ) T2 ) )
(or ( <= ( + T2 131 )  ( + T4 62 ) ) ( <= ( + T4 162 )( + T2 71 ) ) )
(or ( <= ( + T2 174 )  ( + T4 162 ) ) ( <= ( + T4 240 )( + T2 131 ) ) )
(or ( <= ( + T2 202 )  ( + T4 240 ) ) ( <= ( + T4 290 )( + T2 174 ) ) )
(or ( <= ( + T2 273 )  ( + T4 290 ) ) ( <= ( + T4 385 )( + T2 202 ) ) )
(or ( <= ( + T2 274 )  ( + T4 385 ) ) ( <= ( + T4 458 )( + T2 273 ) ) )
(or ( <= ( + T2 336 )  ( + T4 458 ) ) ( <= ( + T4 557 )( + T2 274 ) ) )
(or ( <= ( + T2 415 )  ( + T4 557 ) ) ( <= ( + T4 645 )( + T2 336 ) ) )
(or ( <= ( + T2 71 ) T5 ) ( <= ( + T5 48 ) T2 ) )
(or ( <= ( + T2 131 )  ( + T5 48 ) ) ( <= ( + T5 86 )( + T2 71 ) ) )
(or ( <= ( + T2 174 )  ( + T5 86 ) ) ( <= ( + T5 167 )( + T2 131 ) ) )
(or ( <= ( + T2 202 )  ( + T5 167 ) ) ( <= ( + T5 170 )( + T2 174 ) ) )
(or ( <= ( + T2 273 )  ( + T5 170 ) ) ( <= ( + T5 263 )( + T2 202 ) ) )
(or ( <= ( + T2 274 )  ( + T5 263 ) ) ( <= ( + T5 319 )( + T2 273 ) ) )
(or ( <= ( + T2 336 )  ( + T5 319 ) ) ( <= ( + T5 369 )( + T2 274 ) ) )
(or ( <= ( + T2 415 )  ( + T5 369 ) ) ( <= ( + T5 384 )( + T2 336 ) ) )
(or ( <= ( + T2 71 ) T6 ) ( <= ( + T6 15 ) T2 ) )
(or ( <= ( + T2 131 )  ( + T6 15 ) ) ( <= ( + T6 107 )( + T2 71 ) ) )
(or ( <= ( + T2 174 )  ( + T6 107 ) ) ( <= ( + T6 202 )( + T2 131 ) ) )
(or ( <= ( + T2 202 )  ( + T6 202 ) ) ( <= ( + T6 239 )( + T2 174 ) ) )
(or ( <= ( + T2 273 )  ( + T6 239 ) ) ( <= ( + T6 284 )( + T2 202 ) ) )
(or ( <= ( + T2 274 )  ( + T6 284 ) ) ( <= ( + T6 340 )( + T2 273 ) ) )
(or ( <= ( + T2 336 )  ( + T6 340 ) ) ( <= ( + T6 355 )( + T2 274 ) ) )
(or ( <= ( + T2 415 )  ( + T6 355 ) ) ( <= ( + T6 373 )( + T2 336 ) ) )
(or ( <= ( + T2 71 ) T7 ) ( <= ( + T7 37 ) T2 ) )
(or ( <= ( + T2 131 )  ( + T7 37 ) ) ( <= ( + T7 123 )( + T2 71 ) ) )
(or ( <= ( + T2 174 )  ( + T7 123 ) ) ( <= ( + T7 176 )( + T2 131 ) ) )
(or ( <= ( + T2 202 )  ( + T7 176 ) ) ( <= ( + T7 243 )( + T2 174 ) ) )
(or ( <= ( + T2 273 )  ( + T7 243 ) ) ( <= ( + T7 309 )( + T2 202 ) ) )
(or ( <= ( + T2 274 )  ( + T7 309 ) ) ( <= ( + T7 374 )( + T2 273 ) ) )
(or ( <= ( + T2 336 )  ( + T7 374 ) ) ( <= ( + T7 421 )( + T2 274 ) ) )
(or ( <= ( + T2 415 )  ( + T7 421 ) ) ( <= ( + T7 500 )( + T2 336 ) ) )
(or ( <= ( + T2 71 ) T8 ) ( <= ( + T8 64 ) T2 ) )
(or ( <= ( + T2 131 )  ( + T8 64 ) ) ( <= ( + T8 140 )( + T2 71 ) ) )
(or ( <= ( + T2 174 )  ( + T8 140 ) ) ( <= ( + T8 221 )( + T2 131 ) ) )
(or ( <= ( + T2 202 )  ( + T8 221 ) ) ( <= ( + T8 231 )( + T2 174 ) ) )
(or ( <= ( + T2 273 )  ( + T8 231 ) ) ( <= ( + T8 279 )( + T2 202 ) ) )
(or ( <= ( + T2 274 )  ( + T8 279 ) ) ( <= ( + T8 310 )( + T2 273 ) ) )
(or ( <= ( + T2 336 )  ( + T8 310 ) ) ( <= ( + T8 408 )( + T2 274 ) ) )
(or ( <= ( + T2 415 )  ( + T8 408 ) ) ( <= ( + T8 503 )( + T2 336 ) ) )
(or ( <= ( + T2 71 ) T9 ) ( <= ( + T9 68 ) T2 ) )
(or ( <= ( + T2 131 )  ( + T9 68 ) ) ( <= ( + T9 98 )( + T2 71 ) ) )
(or ( <= ( + T2 174 )  ( + T9 98 ) ) ( <= ( + T9 147 )( + T2 131 ) ) )
(or ( <= ( + T2 202 )  ( + T9 147 ) ) ( <= ( + T9 159 )( + T2 174 ) ) )
(or ( <= ( + T2 273 )  ( + T9 159 ) ) ( <= ( + T9 196 )( + T2 202 ) ) )
(or ( <= ( + T2 274 )  ( + T9 196 ) ) ( <= ( + T9 295 )( + T2 273 ) ) )
(or ( <= ( + T2 336 )  ( + T9 295 ) ) ( <= ( + T9 322 )( + T2 274 ) ) )
(or ( <= ( + T2 415 )  ( + T9 322 ) ) ( <= ( + T9 373 )( + T2 336 ) ) )
(or ( <= ( + T2 71 ) T10 ) ( <= ( + T10 42 ) T2 ) )
(or ( <= ( + T2 131 )  ( + T10 42 ) ) ( <= ( + T10 115 )( + T2 71 ) ) )
(or ( <= ( + T2 174 )  ( + T10 115 ) ) ( <= ( + T10 202 )( + T2 131 ) ) )
(or ( <= ( + T2 202 )  ( + T10 202 ) ) ( <= ( + T10 288 )( + T2 174 ) ) )
(or ( <= ( + T2 273 )  ( + T10 288 ) ) ( <= ( + T10 316 )( + T2 202 ) ) )
(or ( <= ( + T2 274 )  ( + T10 316 ) ) ( <= ( + T10 317 )( + T2 273 ) ) )
(or ( <= ( + T2 336 )  ( + T10 317 ) ) ( <= ( + T10 320 )( + T2 274 ) ) )
(or ( <= ( + T2 415 )  ( + T10 320 ) ) ( <= ( + T10 336 )( + T2 336 ) ) )
(or ( <= ( + T3 22 ) T4 ) ( <= ( + T4 62 ) T3 ) )
(or ( <= ( + T3 104 )  ( + T4 62 ) ) ( <= ( + T4 162 )( + T3 22 ) ) )
(or ( <= ( + T3 176 )  ( + T4 162 ) ) ( <= ( + T4 240 )( + T3 104 ) ) )
(or ( <= ( + T3 212 )  ( + T4 240 ) ) ( <= ( + T4 290 )( + T3 176 ) ) )
(or ( <= ( + T3 291 )  ( + T4 290 ) ) ( <= ( + T4 385 )( + T3 212 ) ) )
(or ( <= ( + T3 371 )  ( + T4 385 ) ) ( <= ( + T4 458 )( + T3 291 ) ) )
(or ( <= ( + T3 432 )  ( + T4 458 ) ) ( <= ( + T4 557 )( + T3 371 ) ) )
(or ( <= ( + T3 513 )  ( + T4 557 ) ) ( <= ( + T4 645 )( + T3 432 ) ) )
(or ( <= ( + T3 22 ) T5 ) ( <= ( + T5 48 ) T3 ) )
(or ( <= ( + T3 104 )  ( + T5 48 ) ) ( <= ( + T5 86 )( + T3 22 ) ) )
(or ( <= ( + T3 176 )  ( + T5 86 ) ) ( <= ( + T5 167 )( + T3 104 ) ) )
(or ( <= ( + T3 212 )  ( + T5 167 ) ) ( <= ( + T5 170 )( + T3 176 ) ) )
(or ( <= ( + T3 291 )  ( + T5 170 ) ) ( <= ( + T5 263 )( + T3 212 ) ) )
(or ( <= ( + T3 371 )  ( + T5 263 ) ) ( <= ( + T5 319 )( + T3 291 ) ) )
(or ( <= ( + T3 432 )  ( + T5 319 ) ) ( <= ( + T5 369 )( + T3 371 ) ) )
(or ( <= ( + T3 513 )  ( + T5 369 ) ) ( <= ( + T5 384 )( + T3 432 ) ) )
(or ( <= ( + T3 22 ) T6 ) ( <= ( + T6 15 ) T3 ) )
(or ( <= ( + T3 104 )  ( + T6 15 ) ) ( <= ( + T6 107 )( + T3 22 ) ) )
(or ( <= ( + T3 176 )  ( + T6 107 ) ) ( <= ( + T6 202 )( + T3 104 ) ) )
(or ( <= ( + T3 212 )  ( + T6 202 ) ) ( <= ( + T6 239 )( + T3 176 ) ) )
(or ( <= ( + T3 291 )  ( + T6 239 ) ) ( <= ( + T6 284 )( + T3 212 ) ) )
(or ( <= ( + T3 371 )  ( + T6 284 ) ) ( <= ( + T6 340 )( + T3 291 ) ) )
(or ( <= ( + T3 432 )  ( + T6 340 ) ) ( <= ( + T6 355 )( + T3 371 ) ) )
(or ( <= ( + T3 513 )  ( + T6 355 ) ) ( <= ( + T6 373 )( + T3 432 ) ) )
(or ( <= ( + T3 22 ) T7 ) ( <= ( + T7 37 ) T3 ) )
(or ( <= ( + T3 104 )  ( + T7 37 ) ) ( <= ( + T7 123 )( + T3 22 ) ) )
(or ( <= ( + T3 176 )  ( + T7 123 ) ) ( <= ( + T7 176 )( + T3 104 ) ) )
(or ( <= ( + T3 212 )  ( + T7 176 ) ) ( <= ( + T7 243 )( + T3 176 ) ) )
(or ( <= ( + T3 291 )  ( + T7 243 ) ) ( <= ( + T7 309 )( + T3 212 ) ) )
(or ( <= ( + T3 371 )  ( + T7 309 ) ) ( <= ( + T7 374 )( + T3 291 ) ) )
(or ( <= ( + T3 432 )  ( + T7 374 ) ) ( <= ( + T7 421 )( + T3 371 ) ) )
(or ( <= ( + T3 513 )  ( + T7 421 ) ) ( <= ( + T7 500 )( + T3 432 ) ) )
(or ( <= ( + T3 22 ) T8 ) ( <= ( + T8 64 ) T3 ) )
(or ( <= ( + T3 104 )  ( + T8 64 ) ) ( <= ( + T8 140 )( + T3 22 ) ) )
(or ( <= ( + T3 176 )  ( + T8 140 ) ) ( <= ( + T8 221 )( + T3 104 ) ) )
(or ( <= ( + T3 212 )  ( + T8 221 ) ) ( <= ( + T8 231 )( + T3 176 ) ) )
(or ( <= ( + T3 291 )  ( + T8 231 ) ) ( <= ( + T8 279 )( + T3 212 ) ) )
(or ( <= ( + T3 371 )  ( + T8 279 ) ) ( <= ( + T8 310 )( + T3 291 ) ) )
(or ( <= ( + T3 432 )  ( + T8 310 ) ) ( <= ( + T8 408 )( + T3 371 ) ) )
(or ( <= ( + T3 513 )  ( + T8 408 ) ) ( <= ( + T8 503 )( + T3 432 ) ) )
(or ( <= ( + T3 22 ) T9 ) ( <= ( + T9 68 ) T3 ) )
(or ( <= ( + T3 104 )  ( + T9 68 ) ) ( <= ( + T9 98 )( + T3 22 ) ) )
(or ( <= ( + T3 176 )  ( + T9 98 ) ) ( <= ( + T9 147 )( + T3 104 ) ) )
(or ( <= ( + T3 212 )  ( + T9 147 ) ) ( <= ( + T9 159 )( + T3 176 ) ) )
(or ( <= ( + T3 291 )  ( + T9 159 ) ) ( <= ( + T9 196 )( + T3 212 ) ) )
(or ( <= ( + T3 371 )  ( + T9 196 ) ) ( <= ( + T9 295 )( + T3 291 ) ) )
(or ( <= ( + T3 432 )  ( + T9 295 ) ) ( <= ( + T9 322 )( + T3 371 ) ) )
(or ( <= ( + T3 513 )  ( + T9 322 ) ) ( <= ( + T9 373 )( + T3 432 ) ) )
(or ( <= ( + T3 22 ) T10 ) ( <= ( + T10 42 ) T3 ) )
(or ( <= ( + T3 104 )  ( + T10 42 ) ) ( <= ( + T10 115 )( + T3 22 ) ) )
(or ( <= ( + T3 176 )  ( + T10 115 ) ) ( <= ( + T10 202 )( + T3 104 ) ) )
(or ( <= ( + T3 212 )  ( + T10 202 ) ) ( <= ( + T10 288 )( + T3 176 ) ) )
(or ( <= ( + T3 291 )  ( + T10 288 ) ) ( <= ( + T10 316 )( + T3 212 ) ) )
(or ( <= ( + T3 371 )  ( + T10 316 ) ) ( <= ( + T10 317 )( + T3 291 ) ) )
(or ( <= ( + T3 432 )  ( + T10 317 ) ) ( <= ( + T10 320 )( + T3 371 ) ) )
(or ( <= ( + T3 513 )  ( + T10 320 ) ) ( <= ( + T10 336 )( + T3 432 ) ) )
(or ( <= ( + T4 62 ) T5 ) ( <= ( + T5 48 ) T4 ) )
(or ( <= ( + T4 162 )  ( + T5 48 ) ) ( <= ( + T5 86 )( + T4 62 ) ) )
(or ( <= ( + T4 240 )  ( + T5 86 ) ) ( <= ( + T5 167 )( + T4 162 ) ) )
(or ( <= ( + T4 290 )  ( + T5 167 ) ) ( <= ( + T5 170 )( + T4 240 ) ) )
(or ( <= ( + T4 385 )  ( + T5 170 ) ) ( <= ( + T5 263 )( + T4 290 ) ) )
(or ( <= ( + T4 458 )  ( + T5 263 ) ) ( <= ( + T5 319 )( + T4 385 ) ) )
(or ( <= ( + T4 557 )  ( + T5 319 ) ) ( <= ( + T5 369 )( + T4 458 ) ) )
(or ( <= ( + T4 645 )  ( + T5 369 ) ) ( <= ( + T5 384 )( + T4 557 ) ) )
(or ( <= ( + T4 62 ) T6 ) ( <= ( + T6 15 ) T4 ) )
(or ( <= ( + T4 162 )  ( + T6 15 ) ) ( <= ( + T6 107 )( + T4 62 ) ) )
(or ( <= ( + T4 240 )  ( + T6 107 ) ) ( <= ( + T6 202 )( + T4 162 ) ) )
(or ( <= ( + T4 290 )  ( + T6 202 ) ) ( <= ( + T6 239 )( + T4 240 ) ) )
(or ( <= ( + T4 385 )  ( + T6 239 ) ) ( <= ( + T6 284 )( + T4 290 ) ) )
(or ( <= ( + T4 458 )  ( + T6 284 ) ) ( <= ( + T6 340 )( + T4 385 ) ) )
(or ( <= ( + T4 557 )  ( + T6 340 ) ) ( <= ( + T6 355 )( + T4 458 ) ) )
(or ( <= ( + T4 645 )  ( + T6 355 ) ) ( <= ( + T6 373 )( + T4 557 ) ) )
(or ( <= ( + T4 62 ) T7 ) ( <= ( + T7 37 ) T4 ) )
(or ( <= ( + T4 162 )  ( + T7 37 ) ) ( <= ( + T7 123 )( + T4 62 ) ) )
(or ( <= ( + T4 240 )  ( + T7 123 ) ) ( <= ( + T7 176 )( + T4 162 ) ) )
(or ( <= ( + T4 290 )  ( + T7 176 ) ) ( <= ( + T7 243 )( + T4 240 ) ) )
(or ( <= ( + T4 385 )  ( + T7 243 ) ) ( <= ( + T7 309 )( + T4 290 ) ) )
(or ( <= ( + T4 458 )  ( + T7 309 ) ) ( <= ( + T7 374 )( + T4 385 ) ) )
(or ( <= ( + T4 557 )  ( + T7 374 ) ) ( <= ( + T7 421 )( + T4 458 ) ) )
(or ( <= ( + T4 645 )  ( + T7 421 ) ) ( <= ( + T7 500 )( + T4 557 ) ) )
(or ( <= ( + T4 62 ) T8 ) ( <= ( + T8 64 ) T4 ) )
(or ( <= ( + T4 162 )  ( + T8 64 ) ) ( <= ( + T8 140 )( + T4 62 ) ) )
(or ( <= ( + T4 240 )  ( + T8 140 ) ) ( <= ( + T8 221 )( + T4 162 ) ) )
(or ( <= ( + T4 290 )  ( + T8 221 ) ) ( <= ( + T8 231 )( + T4 240 ) ) )
(or ( <= ( + T4 385 )  ( + T8 231 ) ) ( <= ( + T8 279 )( + T4 290 ) ) )
(or ( <= ( + T4 458 )  ( + T8 279 ) ) ( <= ( + T8 310 )( + T4 385 ) ) )
(or ( <= ( + T4 557 )  ( + T8 310 ) ) ( <= ( + T8 408 )( + T4 458 ) ) )
(or ( <= ( + T4 645 )  ( + T8 408 ) ) ( <= ( + T8 503 )( + T4 557 ) ) )
(or ( <= ( + T4 62 ) T9 ) ( <= ( + T9 68 ) T4 ) )
(or ( <= ( + T4 162 )  ( + T9 68 ) ) ( <= ( + T9 98 )( + T4 62 ) ) )
(or ( <= ( + T4 240 )  ( + T9 98 ) ) ( <= ( + T9 147 )( + T4 162 ) ) )
(or ( <= ( + T4 290 )  ( + T9 147 ) ) ( <= ( + T9 159 )( + T4 240 ) ) )
(or ( <= ( + T4 385 )  ( + T9 159 ) ) ( <= ( + T9 196 )( + T4 290 ) ) )
(or ( <= ( + T4 458 )  ( + T9 196 ) ) ( <= ( + T9 295 )( + T4 385 ) ) )
(or ( <= ( + T4 557 )  ( + T9 295 ) ) ( <= ( + T9 322 )( + T4 458 ) ) )
(or ( <= ( + T4 645 )  ( + T9 322 ) ) ( <= ( + T9 373 )( + T4 557 ) ) )
(or ( <= ( + T4 62 ) T10 ) ( <= ( + T10 42 ) T4 ) )
(or ( <= ( + T4 162 )  ( + T10 42 ) ) ( <= ( + T10 115 )( + T4 62 ) ) )
(or ( <= ( + T4 240 )  ( + T10 115 ) ) ( <= ( + T10 202 )( + T4 162 ) ) )
(or ( <= ( + T4 290 )  ( + T10 202 ) ) ( <= ( + T10 288 )( + T4 240 ) ) )
(or ( <= ( + T4 385 )  ( + T10 288 ) ) ( <= ( + T10 316 )( + T4 290 ) ) )
(or ( <= ( + T4 458 )  ( + T10 316 ) ) ( <= ( + T10 317 )( + T4 385 ) ) )
(or ( <= ( + T4 557 )  ( + T10 317 ) ) ( <= ( + T10 320 )( + T4 458 ) ) )
(or ( <= ( + T4 645 )  ( + T10 320 ) ) ( <= ( + T10 336 )( + T4 557 ) ) )
(or ( <= ( + T5 48 ) T6 ) ( <= ( + T6 15 ) T5 ) )
(or ( <= ( + T5 86 )  ( + T6 15 ) ) ( <= ( + T6 107 )( + T5 48 ) ) )
(or ( <= ( + T5 167 )  ( + T6 107 ) ) ( <= ( + T6 202 )( + T5 86 ) ) )
(or ( <= ( + T5 170 )  ( + T6 202 ) ) ( <= ( + T6 239 )( + T5 167 ) ) )
(or ( <= ( + T5 263 )  ( + T6 239 ) ) ( <= ( + T6 284 )( + T5 170 ) ) )
(or ( <= ( + T5 319 )  ( + T6 284 ) ) ( <= ( + T6 340 )( + T5 263 ) ) )
(or ( <= ( + T5 369 )  ( + T6 340 ) ) ( <= ( + T6 355 )( + T5 319 ) ) )
(or ( <= ( + T5 384 )  ( + T6 355 ) ) ( <= ( + T6 373 )( + T5 369 ) ) )
(or ( <= ( + T5 48 ) T7 ) ( <= ( + T7 37 ) T5 ) )
(or ( <= ( + T5 86 )  ( + T7 37 ) ) ( <= ( + T7 123 )( + T5 48 ) ) )
(or ( <= ( + T5 167 )  ( + T7 123 ) ) ( <= ( + T7 176 )( + T5 86 ) ) )
(or ( <= ( + T5 170 )  ( + T7 176 ) ) ( <= ( + T7 243 )( + T5 167 ) ) )
(or ( <= ( + T5 263 )  ( + T7 243 ) ) ( <= ( + T7 309 )( + T5 170 ) ) )
(or ( <= ( + T5 319 )  ( + T7 309 ) ) ( <= ( + T7 374 )( + T5 263 ) ) )
(or ( <= ( + T5 369 )  ( + T7 374 ) ) ( <= ( + T7 421 )( + T5 319 ) ) )
(or ( <= ( + T5 384 )  ( + T7 421 ) ) ( <= ( + T7 500 )( + T5 369 ) ) )
(or ( <= ( + T5 48 ) T8 ) ( <= ( + T8 64 ) T5 ) )
(or ( <= ( + T5 86 )  ( + T8 64 ) ) ( <= ( + T8 140 )( + T5 48 ) ) )
(or ( <= ( + T5 167 )  ( + T8 140 ) ) ( <= ( + T8 221 )( + T5 86 ) ) )
(or ( <= ( + T5 170 )  ( + T8 221 ) ) ( <= ( + T8 231 )( + T5 167 ) ) )
(or ( <= ( + T5 263 )  ( + T8 231 ) ) ( <= ( + T8 279 )( + T5 170 ) ) )
(or ( <= ( + T5 319 )  ( + T8 279 ) ) ( <= ( + T8 310 )( + T5 263 ) ) )
(or ( <= ( + T5 369 )  ( + T8 310 ) ) ( <= ( + T8 408 )( + T5 319 ) ) )
(or ( <= ( + T5 384 )  ( + T8 408 ) ) ( <= ( + T8 503 )( + T5 369 ) ) )
(or ( <= ( + T5 48 ) T9 ) ( <= ( + T9 68 ) T5 ) )
(or ( <= ( + T5 86 )  ( + T9 68 ) ) ( <= ( + T9 98 )( + T5 48 ) ) )
(or ( <= ( + T5 167 )  ( + T9 98 ) ) ( <= ( + T9 147 )( + T5 86 ) ) )
(or ( <= ( + T5 170 )  ( + T9 147 ) ) ( <= ( + T9 159 )( + T5 167 ) ) )
(or ( <= ( + T5 263 )  ( + T9 159 ) ) ( <= ( + T9 196 )( + T5 170 ) ) )
(or ( <= ( + T5 319 )  ( + T9 196 ) ) ( <= ( + T9 295 )( + T5 263 ) ) )
(or ( <= ( + T5 369 )  ( + T9 295 ) ) ( <= ( + T9 322 )( + T5 319 ) ) )
(or ( <= ( + T5 384 )  ( + T9 322 ) ) ( <= ( + T9 373 )( + T5 369 ) ) )
(or ( <= ( + T5 48 ) T10 ) ( <= ( + T10 42 ) T5 ) )
(or ( <= ( + T5 86 )  ( + T10 42 ) ) ( <= ( + T10 115 )( + T5 48 ) ) )
(or ( <= ( + T5 167 )  ( + T10 115 ) ) ( <= ( + T10 202 )( + T5 86 ) ) )
(or ( <= ( + T5 170 )  ( + T10 202 ) ) ( <= ( + T10 288 )( + T5 167 ) ) )
(or ( <= ( + T5 263 )  ( + T10 288 ) ) ( <= ( + T10 316 )( + T5 170 ) ) )
(or ( <= ( + T5 319 )  ( + T10 316 ) ) ( <= ( + T10 317 )( + T5 263 ) ) )
(or ( <= ( + T5 369 )  ( + T10 317 ) ) ( <= ( + T10 320 )( + T5 319 ) ) )
(or ( <= ( + T5 384 )  ( + T10 320 ) ) ( <= ( + T10 336 )( + T5 369 ) ) )
(or ( <= ( + T6 15 ) T7 ) ( <= ( + T7 37 ) T6 ) )
(or ( <= ( + T6 107 )  ( + T7 37 ) ) ( <= ( + T7 123 )( + T6 15 ) ) )
(or ( <= ( + T6 202 )  ( + T7 123 ) ) ( <= ( + T7 176 )( + T6 107 ) ) )
(or ( <= ( + T6 239 )  ( + T7 176 ) ) ( <= ( + T7 243 )( + T6 202 ) ) )
(or ( <= ( + T6 284 )  ( + T7 243 ) ) ( <= ( + T7 309 )( + T6 239 ) ) )
(or ( <= ( + T6 340 )  ( + T7 309 ) ) ( <= ( + T7 374 )( + T6 284 ) ) )
(or ( <= ( + T6 355 )  ( + T7 374 ) ) ( <= ( + T7 421 )( + T6 340 ) ) )
(or ( <= ( + T6 373 )  ( + T7 421 ) ) ( <= ( + T7 500 )( + T6 355 ) ) )
(or ( <= ( + T6 15 ) T8 ) ( <= ( + T8 64 ) T6 ) )
(or ( <= ( + T6 107 )  ( + T8 64 ) ) ( <= ( + T8 140 )( + T6 15 ) ) )
(or ( <= ( + T6 202 )  ( + T8 140 ) ) ( <= ( + T8 221 )( + T6 107 ) ) )
(or ( <= ( + T6 239 )  ( + T8 221 ) ) ( <= ( + T8 231 )( + T6 202 ) ) )
(or ( <= ( + T6 284 )  ( + T8 231 ) ) ( <= ( + T8 279 )( + T6 239 ) ) )
(or ( <= ( + T6 340 )  ( + T8 279 ) ) ( <= ( + T8 310 )( + T6 284 ) ) )
(or ( <= ( + T6 355 )  ( + T8 310 ) ) ( <= ( + T8 408 )( + T6 340 ) ) )
(or ( <= ( + T6 373 )  ( + T8 408 ) ) ( <= ( + T8 503 )( + T6 355 ) ) )
(or ( <= ( + T6 15 ) T9 ) ( <= ( + T9 68 ) T6 ) )
(or ( <= ( + T6 107 )  ( + T9 68 ) ) ( <= ( + T9 98 )( + T6 15 ) ) )
(or ( <= ( + T6 202 )  ( + T9 98 ) ) ( <= ( + T9 147 )( + T6 107 ) ) )
(or ( <= ( + T6 239 )  ( + T9 147 ) ) ( <= ( + T9 159 )( + T6 202 ) ) )
(or ( <= ( + T6 284 )  ( + T9 159 ) ) ( <= ( + T9 196 )( + T6 239 ) ) )
(or ( <= ( + T6 340 )  ( + T9 196 ) ) ( <= ( + T9 295 )( + T6 284 ) ) )
(or ( <= ( + T6 355 )  ( + T9 295 ) ) ( <= ( + T9 322 )( + T6 340 ) ) )
(or ( <= ( + T6 373 )  ( + T9 322 ) ) ( <= ( + T9 373 )( + T6 355 ) ) )
(or ( <= ( + T6 15 ) T10 ) ( <= ( + T10 42 ) T6 ) )
(or ( <= ( + T6 107 )  ( + T10 42 ) ) ( <= ( + T10 115 )( + T6 15 ) ) )
(or ( <= ( + T6 202 )  ( + T10 115 ) ) ( <= ( + T10 202 )( + T6 107 ) ) )
(or ( <= ( + T6 239 )  ( + T10 202 ) ) ( <= ( + T10 288 )( + T6 202 ) ) )
(or ( <= ( + T6 284 )  ( + T10 288 ) ) ( <= ( + T10 316 )( + T6 239 ) ) )
(or ( <= ( + T6 340 )  ( + T10 316 ) ) ( <= ( + T10 317 )( + T6 284 ) ) )
(or ( <= ( + T6 355 )  ( + T10 317 ) ) ( <= ( + T10 320 )( + T6 340 ) ) )
(or ( <= ( + T6 373 )  ( + T10 320 ) ) ( <= ( + T10 336 )( + T6 355 ) ) )
(or ( <= ( + T7 37 ) T8 ) ( <= ( + T8 64 ) T7 ) )
(or ( <= ( + T7 123 )  ( + T8 64 ) ) ( <= ( + T8 140 )( + T7 37 ) ) )
(or ( <= ( + T7 176 )  ( + T8 140 ) ) ( <= ( + T8 221 )( + T7 123 ) ) )
(or ( <= ( + T7 243 )  ( + T8 221 ) ) ( <= ( + T8 231 )( + T7 176 ) ) )
(or ( <= ( + T7 309 )  ( + T8 231 ) ) ( <= ( + T8 279 )( + T7 243 ) ) )
(or ( <= ( + T7 374 )  ( + T8 279 ) ) ( <= ( + T8 310 )( + T7 309 ) ) )
(or ( <= ( + T7 421 )  ( + T8 310 ) ) ( <= ( + T8 408 )( + T7 374 ) ) )
(or ( <= ( + T7 500 )  ( + T8 408 ) ) ( <= ( + T8 503 )( + T7 421 ) ) )
(or ( <= ( + T7 37 ) T9 ) ( <= ( + T9 68 ) T7 ) )
(or ( <= ( + T7 123 )  ( + T9 68 ) ) ( <= ( + T9 98 )( + T7 37 ) ) )
(or ( <= ( + T7 176 )  ( + T9 98 ) ) ( <= ( + T9 147 )( + T7 123 ) ) )
(or ( <= ( + T7 243 )  ( + T9 147 ) ) ( <= ( + T9 159 )( + T7 176 ) ) )
(or ( <= ( + T7 309 )  ( + T9 159 ) ) ( <= ( + T9 196 )( + T7 243 ) ) )
(or ( <= ( + T7 374 )  ( + T9 196 ) ) ( <= ( + T9 295 )( + T7 309 ) ) )
(or ( <= ( + T7 421 )  ( + T9 295 ) ) ( <= ( + T9 322 )( + T7 374 ) ) )
(or ( <= ( + T7 500 )  ( + T9 322 ) ) ( <= ( + T9 373 )( + T7 421 ) ) )
(or ( <= ( + T7 37 ) T10 ) ( <= ( + T10 42 ) T7 ) )
(or ( <= ( + T7 123 )  ( + T10 42 ) ) ( <= ( + T10 115 )( + T7 37 ) ) )
(or ( <= ( + T7 176 )  ( + T10 115 ) ) ( <= ( + T10 202 )( + T7 123 ) ) )
(or ( <= ( + T7 243 )  ( + T10 202 ) ) ( <= ( + T10 288 )( + T7 176 ) ) )
(or ( <= ( + T7 309 )  ( + T10 288 ) ) ( <= ( + T10 316 )( + T7 243 ) ) )
(or ( <= ( + T7 374 )  ( + T10 316 ) ) ( <= ( + T10 317 )( + T7 309 ) ) )
(or ( <= ( + T7 421 )  ( + T10 317 ) ) ( <= ( + T10 320 )( + T7 374 ) ) )
(or ( <= ( + T7 500 )  ( + T10 320 ) ) ( <= ( + T10 336 )( + T7 421 ) ) )
(or ( <= ( + T8 64 ) T9 ) ( <= ( + T9 68 ) T8 ) )
(or ( <= ( + T8 140 )  ( + T9 68 ) ) ( <= ( + T9 98 )( + T8 64 ) ) )
(or ( <= ( + T8 221 )  ( + T9 98 ) ) ( <= ( + T9 147 )( + T8 140 ) ) )
(or ( <= ( + T8 231 )  ( + T9 147 ) ) ( <= ( + T9 159 )( + T8 221 ) ) )
(or ( <= ( + T8 279 )  ( + T9 159 ) ) ( <= ( + T9 196 )( + T8 231 ) ) )
(or ( <= ( + T8 310 )  ( + T9 196 ) ) ( <= ( + T9 295 )( + T8 279 ) ) )
(or ( <= ( + T8 408 )  ( + T9 295 ) ) ( <= ( + T9 322 )( + T8 310 ) ) )
(or ( <= ( + T8 503 )  ( + T9 322 ) ) ( <= ( + T9 373 )( + T8 408 ) ) )
(or ( <= ( + T8 64 ) T10 ) ( <= ( + T10 42 ) T8 ) )
(or ( <= ( + T8 140 )  ( + T10 42 ) ) ( <= ( + T10 115 )( + T8 64 ) ) )
(or ( <= ( + T8 221 )  ( + T10 115 ) ) ( <= ( + T10 202 )( + T8 140 ) ) )
(or ( <= ( + T8 231 )  ( + T10 202 ) ) ( <= ( + T10 288 )( + T8 221 ) ) )
(or ( <= ( + T8 279 )  ( + T10 288 ) ) ( <= ( + T10 316 )( + T8 231 ) ) )
(or ( <= ( + T8 310 )  ( + T10 316 ) ) ( <= ( + T10 317 )( + T8 279 ) ) )
(or ( <= ( + T8 408 )  ( + T10 317 ) ) ( <= ( + T10 320 )( + T8 310 ) ) )
(or ( <= ( + T8 503 )  ( + T10 320 ) ) ( <= ( + T10 336 )( + T8 408 ) ) )
(or ( <= ( + T9 68 ) T10 ) ( <= ( + T10 42 ) T9 ) )
(or ( <= ( + T9 98 )  ( + T10 42 ) ) ( <= ( + T10 115 )( + T9 68 ) ) )
(or ( <= ( + T9 147 )  ( + T10 115 ) ) ( <= ( + T10 202 )( + T9 98 ) ) )
(or ( <= ( + T9 159 )  ( + T10 202 ) ) ( <= ( + T10 288 )( + T9 147 ) ) )
(or ( <= ( + T9 196 )  ( + T10 288 ) ) ( <= ( + T10 316 )( + T9 159 ) ) )
(or ( <= ( + T9 295 )  ( + T10 316 ) ) ( <= ( + T10 317 )( + T9 196 ) ) )
(or ( <= ( + T9 322 )  ( + T10 317 ) ) ( <= ( + T10 320 )( + T9 295 ) ) )
(or ( <= ( + T9 373 )  ( + T10 320 ) ) ( <= ( + T10 336 )( + T9 322 ) ) )
( <= ( + T1 530 ) Z)
( <= ( + T2 415 ) Z)
( <= ( + T3 513 ) Z)
( <= ( + T4 645 ) Z)
( <= ( + T5 384 ) Z)
( <= ( + T6 373 ) Z)
( <= ( + T7 500 ) Z)
( <= ( + T8 503 ) Z)
( <= ( + T9 373 ) Z)
( <= ( + T10 336 ) Z)
( >= T1 0 )
( >= T2 0 )
( >= T3 0 )
( >= T4 0 )
( >= T5 0 )
( >= T6 0 )
( >= T7 0 )
( >= T8 0 )
( >= T9 0 )
( >= T10 0 )
) )
)(=> $phi $goal))))